src/tools/25.in
25
50
7
25
0 1
0 2
0 9
0 11
1 9
1 10
2 5
2 9
2 13
2 21
2 22
2 24
3 13
3 19
4 7
4 11
4 13
4 15
4 17
5 6
5 7
5 10
5 11
6 10
6 18
6 22
7 10
7 14
8 9
8 10
8 12
8 13
8 15
8 18
9 13
10 15
10 16
11 17
11 19
11 21
11 22
13 15
15 19
15 21
16 20
16 22
16 23
18 20
18 21
20 24
0
1
2
3
4
5
6
7
8
9
10
11
12
13
14
15
16
17
18
19
20
21
22
23
24
